NAME 
ROWS
 N  OBJ
 L  R0      
 L  R1      
 L  R2      
 E  R3      
 E  R4      
 E  R5      
 E  R6      
 E  R7      
 E  R8      
 E  R9      
 E  R10     
 E  R11     
 E  R12     
 E  R13     
 E  R14     
 E  R15     
 E  R16     
 E  R17     
COLUMNS
    MARKER    'MARKER'                 'INTORG'
    I0(8)     OBJ       27
    I0(8)     R0        -136
    I0(8)     R1        -182
    I0(8)     R2        117
    I0(8)     R3        5
    I0(8)     R6        9
    I0(8)     R7        2
    I0(8)     R11       13
    I0(8)     R17       1
    I1(9)     OBJ       -60
    I1(9)     R0        20
    I1(9)     R1        32
    I1(9)     R2        185
    I1(9)     R3        18
    I1(9)     R5        2
    I1(9)     R7        19
    I1(9)     R10       18
    I1(9)     R11       -1
    I1(9)     R17       1
    I2(8)     OBJ       91
    I2(8)     R0        48
    I2(8)     R1        -111
    I2(8)     R2        130
    I2(8)     R4        16
    I2(8)     R8        8
    I2(8)     R10       13
    I2(8)     R11       15
    I2(8)     R17       1
    I3(10)    OBJ       121
    I3(10)    R0        -64
    I3(10)    R1        -78
    I3(10)    R2        22
    I3(10)    R3        8
    I3(10)    R7        3
    I3(10)    R8        7
    I3(10)    R9        1
    I3(10)    R10       3
    I3(10)    R11       18
    I3(10)    R17       1
    I4(8)     OBJ       -165
    I4(8)     R0        61
    I4(8)     R1        -138
    I4(8)     R2        50
    I4(8)     R3        3
    I4(8)     R4        9
    I4(8)     R9        4
    I4(8)     R10       14
    I4(8)     R17       1
    I5(8)     OBJ       -47
    I5(8)     R0        8
    I5(8)     R1        109
    I5(8)     R2        -175
    I5(8)     R4        5
    I5(8)     R6        19
    I5(8)     R10       15
    I5(8)     R11       15
    I5(8)     R17       1
    I6(10)    OBJ       127
    I6(10)    R0        -200
    I6(10)    R1        144
    I6(10)    R2        14
    I6(10)    R4        -1
    I6(10)    R5        8
    I6(10)    R6        9
    I6(10)    R7        3
    I6(10)    R9        13
    I6(10)    R10       16
    I6(10)    R17       1
    I7(9)     OBJ       -12
    I7(9)     R0        42
    I7(9)     R1        -158
    I7(9)     R2        -102
    I7(9)     R3        5
    I7(9)     R4        15
    I7(9)     R8        7
    I7(9)     R9        16
    I7(9)     R10       11
    I7(9)     R17       1
    I8(5)     OBJ       -148
    I8(5)     R0        113
    I8(5)     R1        -170
    I8(5)     R2        148
    I8(5)     R4        11
    I8(5)     R17       1
    MARKER    'MARKER'                 'INTEND'
    C9(9)     OBJ       1
    C9(9)     R0        -8
    C9(9)     R1        -6
    C9(9)     R2        -2
    C9(9)     R3        1
    C9(9)     R5        2
    C9(9)     R9        15
    C9(9)     R10       7
    C9(9)     R11       -1
    C9(9)     R14       18
    C10(10)   OBJ       7
    C10(10)   R0        -2
    C10(10)   R1        7
    C10(10)   R2        5
    C10(10)   R3        19
    C10(10)   R4        5
    C10(10)   R6        7
    C10(10)   R8        1
    C10(10)   R9        19
    C10(10)   R11       7
    C10(10)   R16       17
    C11(13)   OBJ       9
    C11(13)   R0        -7
    C11(13)   R1        -8
    C11(13)   R2        9
    C11(13)   R3        8
    C11(13)   R5        4
    C11(13)   R7        3
    C11(13)   R8        18
    C11(13)   R9        15
    C11(13)   R11       2
    C11(13)   R13       16
    C11(13)   R14       11
    C11(13)   R15       3
    C11(13)   R16       1
    C12(9)    OBJ       -7
    C12(9)    R0        -6
    C12(9)    R1        -1
    C12(9)    R2        4
    C12(9)    R3        -1
    C12(9)    R10       4
    C12(9)    R12       9
    C12(9)    R13       2
    C12(9)    R14       3
    C12(9)    R16       7
    C13(8)    OBJ       -5
    C13(8)    R0        -10
    C13(8)    R1        -9
    C13(8)    R2        5
    C13(8)    R3        13
    C13(8)    R6        11
    C13(8)    R11       7
    C13(8)    R14       5
    C13(8)    R16       18
    C14(11)   OBJ       -3
    C14(11)   R0        3
    C14(11)   R1        8
    C14(11)   R2        7
    C14(11)   R3        -1
    C14(11)   R8        4
    C14(11)   R11       -1
    C14(11)   R12       12
    C14(11)   R13       16
    C14(11)   R14       5
    C14(11)   R15       4
    C14(11)   R16       3
    C15(1)    R3        1
    C16(1)    R4        1
    C17(1)    R5        1
    C18(1)    R6        1
    C19(1)    R7        1
    C20(1)    R8        1
    C21(1)    R9        1
    C22(1)    R10       1
    C23(1)    R11       1
    C24(1)    R12       1
    C25(1)    R13       1
    C26(1)    R14       1
    C27(1)    R15       1
    C28(1)    R16       1
    C29(1)    R17       1
RHS
    RHS1      R0        1.3892592592592592e+02
    RHS1      R1        -2.9183333333333331e+02
    RHS1      R2        4.1820370370370370e+02
    RHS1      R3        92
    RHS1      R4        65
    RHS1      R5        68
    RHS1      R6        94
    RHS1      R7        96
    RHS1      R8        54
    RHS1      R9        96
    RHS1      R10       75
    RHS1      R11       92
    RHS1      R12       69
    RHS1      R13       53
    RHS1      R14       81
    RHS1      R15       90
    RHS1      R16       70
    RHS1      R17       3
BOUNDS
 UP BND1      I0(8)     1
 UP BND1      I1(9)     1
 UP BND1      I2(8)     1
 UP BND1      I3(10)    1
 UP BND1      I4(8)     1
 UP BND1      I5(8)     1
 UP BND1      I6(10)    1
 UP BND1      I7(9)     1
 UP BND1      I8(5)     1
ENDATA
